1409.42 0
0 76 77 68 80 150 165 55 25 170 56 75 133 74 21 53 0
0 27 167 127 190 31 162 132 0
0 111 157 33 81 120 71 161 103 188 20 0
0 89 166 153 106 194 148 10 189 70 30 9 51 176 0
0 7 47 36 143 49 64 11 175 107 19 123 182 146 0
0 147 5 173 61 86 113 17 84 199 83 60 118 0
0 37 100 192 119 14 38 140 44 191 141 16 99 104 96 6 0
0 149 179 139 187 39 67 23 186 197 72 0
0 2 115 178 57 144 172 42 142 43 15 145 41 22 171 73 40 0
0 105 180 198 110 155 4 130 54 195 26 0
0 152 58 137 87 97 95 94 112 156 0
0 69 101 160 131 32 181 63 126 90 108 159 62 88 0
0 154 138 184 116 196 28 0
0 50 102 185 79 129 121 29 24 163 134 177 109 12 0
0 1 122 128 66 65 136 35 135 164 34 78 169 3 158 0
0 183 59 93 85 91 193 98 92 151 117 13 0
0 18 114 8 125 45 174 46 124 168 48 82 52 0
